<number of tasks>
50

<cycle time>
1000

<order strength>
0.195


<task times>
1 183
2 127
3 173
4 44
5 206
6 103
7 168
8 199
9 143
10 157
11 242
12 123
13 83
14 287
15 248
16 113
17 164
18 150
19 176
20 45
21 126
22 149
23 281
24 82
25 107
26 201
27 176
28 246
29 96
30 54
31 69
32 176
33 216
34 266
35 136
36 426
37 224
38 156
39 224
40 35
41 74
42 155
43 212
44 178
45 156
46 61
47 178
48 126
49 110
50 129

<precedence relations>
1,5
1,7
1,11
3,6
3,9
3,10
3,11
4,8
5,14
6,12
7,13
7,17
8,15
8,16
9,18
9,35
9,37
10,35
11,29
12,20
13,21
14,24
15,23
16,19
16,25
17,22
19,26
20,27
21,29
22,28
23,29
24,31
25,30
26,32
27,33
28,34
29,35
29,37
29,38
30,36
30,38
32,40
33,39
33,41
34,43
34,45
35,42
37,44
39,46
40,47
41,48
42,49
44,50

<end>
